100
128
36
33
7
11
26
53
22
17
60
16
8
1
18
39
21
14
49
38
31
20
16
30
18
12
58
33
14
55
10
11
2
32
9
24
29
27
10
9
46
26
1
19
37
20
35
20
7
51
35
30
10
22
16
30
15
11
16
32
43
19
1
11
44
11
12
16
10
14
49
10
30
31
14
18
19
30
27
18
21
19
26
18
20
25
25
41
26
50
37
20
34
17
38
62
62
48
35
37
12
43